p edges 631 991
n 1 38.8473
n 2 25.0784
n 3 6.25236
n 4 31.0009
n 5 1.8682
n 6 2.8682
n 7 30.6512
n 8 2.45939
n 9 37.9915
n 10 1.32135
n 11 42.8609
n 12 5.21007
n 13 6.21007
n 14 40.3146
n 15 4.22081
n 16 29.0794
n 17 0.817503
n 18 1.8175
n 19 25.0492
n 20 0.69257
n 21 31.4976
n 22 5.25472
n 23 31.626
n 24 7.64455
n 25 35.6865
n 26 4.03029
n 27 42.4031
n 28 6.04516
n 29 7.04516
n 30 27.133
n 31 0.624603
n 32 1.6246
n 33 22.2709
n 34 7.21197
n 35 8.21197
n 36 36.3057
n 37 6.13078
n 38 7.13078
n 39 40.4262
n 40 0.852848
n 41 25.5788
n 42 2.12656
n 43 34.8849
n 44 0.919948
n 45 25.6463
n 46 1.00727
n 47 29.6991
n 48 3.35336
n 49 41.7395
n 50 5.37949
n 51 6.37949
n 52 7.51906
n 53 0.199453
n 54 1.19945
n 55 3.46975
n 56 2.84033
n 57 3.84033
n 58 4.95317
n 59 1.51884
n 60 1.0033
n 61 2.0033
n 62 0.702456
n 63 1.70246
n 64 5.36146
n 65 6.36146
n 66 0.866484
n 67 1.86648
n 68 4.95005
n 69 2.48159
n 70 0.791312
n 71 1.79131
n 72 2.36606
n 73 3.36606
n 74 0.391284
n 75 1.52566
n 76 2.52566
n 77 2.14485
n 78 3.14485
n 79 2.51755
n 80 3.2039
n 81 4.2039
n 82 46.1687
n 83 0.189058
n 84 1.18906
n 85 3.32489
n 86 4.32489
n 87 0.450847
n 88 1.09098
n 89 8.27185
n 90 9.27185
n 91 5.79913
n 92 4.16827
n 93 5.16827
n 94 0.173977
n 95 3.50915
n 96 5.67345
n 97 6.67345
n 98 1.69722
n 99 2.69722
n 100 5.95575
n 101 0.206762
n 102 1.52659
n 103 2.52659
n 104 2.61923
n 105 3.61923
n 106 9.50596
n 107 10.506
n 108 7.58534
n 109 6.52904
n 110 7.52904
n 111 2.04802
n 112 0.480533
n 113 1.48053
n 114 30.1841
n 115 0.340072
n 116 1.34007
n 117 1.52486
n 118 0.39167
n 119 1.39167
n 120 1.93798
n 121 2.93798
n 122 1.2366
n 123 2.2366
n 124 3.59773
n 125 0.793882
n 126 0.149323
n 127 0.0997437
n 128 3.06363
n 129 5.07815
n 130 2.29962
n 131 1.51245
n 132 2.51245
n 133 1.09496
n 134 7.87303
n 135 1.19936
n 136 6.31168
n 137 7.31168
n 138 0.219789
n 139 4.8317
n 140 5.8317
n 141 2.71341
n 142 3.71341
n 143 54.1834
n 144 1.12596
n 145 2.83768
n 146 2.20071
n 147 3.20071
n 148 7.57661
n 149 8.57661
n 150 4.68809
n 151 5.55741
n 152 6.55741
n 153 6.31081
n 154 5.64422
n 155 0.430224
n 156 7.4775
n 157 8.4775
n 158 6.54729
n 159 7.54729
n 160 8.27543
n 161 9.27543
n 162 0.463488
n 163 1.69945
n 164 2.69945
n 165 5.63801
n 166 6.63801
n 167 3.90567
n 168 4.90567
n 169 2.97641
n 170 9.22769
n 171 10.2277
n 172 3.39666
n 173 4.39666
n 174 1.26789
n 175 2.26789
n 176 37.2318
n 177 0.434398
n 178 1.44311
n 179 2.44311
n 180 0.468061
n 181 5.01156
n 182 6.01156
n 183 7.82825
n 184 4.55955
n 185 4.37024
n 186 5.37024
n 187 3.33322
n 188 1.25897
n 189 0.297468
n 190 0.227857
n 191 1.22786
n 192 9.28968
n 193 10.2897
n 194 0.143735
n 195 1.58146
n 196 4.32866
n 197 5.68035
n 198 1.18644
n 199 2.18644
n 200 4.80765
n 201 1.85103
n 202 2.85103
n 203 3.01184
n 204 42.4174
n 205 0.315551
n 206 1.31555
n 207 2.05696
n 208 8.9313
n 209 0.114458
n 210 5.13436
n 211 9.71223
n 212 3.66589
n 213 3.88173
n 214 6.11438
n 215 0.470854
n 216 1.47085
n 217 6.5786
n 218 0.547495
n 219 1.5475
n 220 0.414253
n 221 1.41425
n 222 1.2738
n 223 2.2738
n 224 8.29154
n 225 9.29154
n 226 1.45423
n 227 0.97388
n 228 4.04395
n 229 1.29424
n 230 2.29424
n 231 0.493582
n 232 1.49358
n 233 43.0251
n 234 2.7672
n 235 3.98612
n 236 4.98612
n 237 7.18182
n 238 3.61778
n 239 4.61778
n 240 7.02314
n 241 0.436126
n 242 1.43613
n 243 3.13712
n 244 0.771696
n 245 1.7717
n 246 2.30259
n 247 3.30259
n 248 0.936222
n 249 2.18154
n 250 4.52681
n 251 5.52681
n 252 1.46228
n 253 2.46228
n 254 4.25428
n 255 3.1842
n 256 6.61894
n 257 1.00212
n 258 1.3308
n 259 0.711018
n 260 1.71102
n 261 8.41956
n 262 9.41956
n 263 43.8664
n 264 4.49891
n 265 5.49891
n 266 2.66909
n 267 3.66909
n 268 1.12118
n 269 1.33109
n 270 2.33109
n 271 5.29708
n 272 4.27039
n 273 2.74988
n 274 0.173258
n 275 1.17326
n 276 6.83206
n 277 2.70736
n 278 4.99335
n 279 3.52933
n 280 7.59122
n 281 8.59122
n 282 2.75727
n 283 1.60556
n 284 2.60556
n 285 4.78294
n 286 5.78294
n 287 0.117323
n 288 1.11732
n 289 1.10039
n 290 2.10039
n 291 1.92216
n 292 5.29779
n 293 6.29779
n 294 39.0281
n 295 0.886868
n 296 1.88687
n 297 0.449871
n 298 0.933236
n 299 8.08683
n 300 7.48917
n 301 2.39124
n 302 3.39124
n 303 6.23533
n 304 7.23533
n 305 3.53907
n 306 4.53907
n 307 0.180631
n 308 1.18063
n 309 3.97514
n 310 5.64174
n 311 6.64174
n 312 4.14321
n 313 3.87276
n 314 4.87276
n 315 0.010156
n 316 1.47536
n 317 2.15897
n 318 3.15897
n 319 3.25474
n 320 4.25474
n 321 0.0640993
n 322 1.0641
n 323 1.57588
n 324 2.57588
n 325 0.342414
n 326 1.34241
n 327 36.9276
n 328 0.95637
n 329 1.95637
n 330 3.95889
n 331 1.94148
n 332 2.94148
n 333 4.52686
n 334 5.12373
n 335 6.12373
n 336 1.52697
n 337 0.834607
n 338 2.27185
n 339 3.27185
n 340 1.78962
n 341 2.78962
n 342 0.798635
n 343 4.34315
n 344 4.34107
n 345 5.34107
n 346 3.23372
n 347 4.23372
n 348 0.810665
n 349 2.76472
n 350 1.40982
n 351 4.92165
n 352 7.07875
n 353 3.58473
n 354 3.21698
n 355 4.21698
n 356 31.044
n 357 2.13872
n 358 3.13872
n 359 4.89606
n 360 2.68516
n 361 3.68516
n 362 4.95906
n 363 5.95906
n 364 2.16644
n 365 3.06948
n 366 4.06948
n 367 1.88917
n 368 0.741565
n 369 1.74156
n 370 0.600442
n 371 1.83026
n 372 1.88962
n 373 1.36289
n 374 2.36289
n 375 0.84755
n 376 1.42631
n 377 2.42631
n 378 0.585491
n 379 2.07811
n 380 3.07811
n 381 1.01392
n 382 2.01392
n 383 5.97207
n 384 0.664213
n 385 2.63727
n 386 3.63727
n 387 41.6052
n 388 2.36979
n 389 3.36979
n 390 9.05307
n 391 10.0531
n 392 0.0929036
n 393 1.00545
n 394 2.00545
n 395 2.37673
n 396 3.37673
n 397 1.70762
n 398 3.9213
n 399 4.9213
n 400 0.7853
n 401 1.7853
n 402 2.72078
n 403 4.86626
n 404 5.86626
n 405 2.85619
n 406 2.95874
n 407 0.810217
n 408 1.81022
n 409 0.877622
n 410 1.87762
n 411 2.60037
n 412 3.60037
n 413 8.60795
n 414 9.60795
n 415 4.04894
n 416 0.693381
n 417 1.69338
n 418 5.07372
n 419 6.07372
n 420 5.47266
n 421 42.3912
n 422 3.66058
n 423 4.66058
n 424 2.11751
n 425 3.52483
n 426 3.90313
n 427 2.34152
n 428 4.28437
n 429 2.80529
n 430 3.80529
n 431 1.3882
n 432 2.3882
n 433 4.51116
n 434 5.51116
n 435 8.36754
n 436 9.36754
n 437 5.23295
n 438 6.23295
n 439 6.34448
n 440 1.5396
n 441 1.55418
n 442 2.55418
n 443 4.3437
n 444 1.18683
n 445 2.17646
n 446 5.80195
n 447 6.80195
n 448 2.87902
n 449 3.87902
n 450 1.25232
n 451 2.25232
n 452 40.9323
n 453 0.0623155
n 454 1.06232
n 455 5.43014
n 456 6.43014
n 457 3.98089
n 458 4.98089
n 459 0.755718
n 460 1.75572
n 461 1.85031
n 462 4.60338
n 463 3.72526
n 464 4.44835
n 465 5.71062
n 466 6.71062
n 467 3.05704
n 468 4.05704
n 469 3.36952
n 470 4.36952
n 471 0.618006
n 472 4.74908
n 473 5.74908
n 474 2.87065
n 475 3.87065
n 476 2.09578
n 477 0.31715
n 478 1.31715
n 479 4.76096
n 480 1.94585
n 481 4.27219
n 482 5.27219
n 483 0.0741917
n 484 1.07419
n 485 44.8527
n 486 3.06845
n 487 4.06845
n 488 2.63518
n 489 3.63518
n 490 3.31926
n 491 4.65505
n 492 5.65505
n 493 7.58597
n 494 8.24939
n 495 3.67822
n 496 4.67822
n 497 1.19276
n 498 7.37242
n 499 1.76733
n 500 2.76733
n 501 0.738452
n 502 2.31805
n 503 0.726855
n 504 1.72686
n 505 2.85699
n 506 5.92969
n 507 6.92969
n 508 2.14841
n 509 3.14841
n 510 0.839307
n 511 7.95586
n 512 2.33109
n 513 3.33109
n 514 3.30336
n 515 4.30336
n 516 36.6145
n 517 0.0369535
n 518 2.80025
n 519 1.57024
n 520 2.57024
n 521 7.30262
n 522 8.30262
n 523 4.2446
n 524 5.2446
n 525 3.54889
n 526 3.11956
n 527 4.11956
n 528 0.414746
n 529 3.84544
n 530 6.41693
n 531 0.7639
n 532 1.7639
n 533 2.32914
n 534 7.39004
n 535 8.39004
n 536 1.14975
n 537 0.521474
n 538 5.69416
n 539 6.69416
n 540 0.668358
n 541 1.66836
n 542 0.607241
n 543 1.60724
n 544 2.14279
n 545 0.991839
n 546 1.99184
n 547 38.0474
n 548 12.557
n 549 0.0745097
n 550 8.2644
n 551 0.820841
n 552 1.4082
n 553 0.588572
n 554 2.2903
n 555 1.29786
n 556 3.34041
n 557 1.81688
n 558 2.81688
n 559 2.65094
n 560 3.65094
n 561 4.56501
n 562 1.75499
n 563 2.75499
n 564 3.09798
n 565 1.98602
n 566 3.12491
n 567 5.8273
n 568 5.6695
n 569 5.2669
n 570 3.66611
n 571 47.3404
n 572 6.34164
n 573 2.24883
n 574 0.507494
n 575 6.83653
n 576 7.83653
n 577 1.93951
n 578 2.93951
n 579 1.03104
n 580 2.03104
n 581 2.07632
n 582 4.38563
n 583 0.715922
n 584 0.953035
n 585 5.94394
n 586 6.94394
n 587 0.789559
n 588 1.78956
n 589 8.30665
n 590 9.30665
n 591 3.8552
n 592 2.08943
n 593 3.08943
n 594 9.19597
n 595 4.73079
n 596 5.73079
n 597 3.08797
n 598 4.08797
n 599 5.93579
n 600 6.93579
n 601 5.31596
n 602 6.31596
n 603 38.2765
n 604 0.281216
n 605 1.28122
n 606 2.76556
n 607 5.32427
n 608 6.00917
n 609 7.00917
n 610 1.79672
n 611 2.19874
n 612 3.2973
n 613 8.15262
n 614 0.171897
n 615 0.0738958
n 616 1.0739
n 617 4.26622
n 618 2.62866
n 619 3.23496
n 620 4.23496
n 621 5.60442
n 622 6.60442
n 623 2.66221
n 624 3.66221
n 625 7.03134
n 626 8.03134
n 627 2.66464
n 628 1.02067
n 629 0.205915
n 630 0.126379
n 631 1.12638
e 1 3
e 2 3
e 5 6
e 6 1
e 5 4
e 1 8
e 7 8
e 1 10
e 9 10
e 12 13
e 13 1
e 12 11
e 1 15
e 14 15
e 17 18
e 18 1
e 17 16
e 1 20
e 19 20
e 1 22
e 21 22
e 1 24
e 23 24
e 1 26
e 25 26
e 28 29
e 29 1
e 28 27
e 31 32
e 32 1
e 31 30
e 34 35
e 35 1
e 34 33
e 37 38
e 38 1
e 37 36
e 1 40
e 39 40
e 1 42
e 41 42
e 1 44
e 43 44
e 1 46
e 45 46
e 1 48
e 47 48
e 50 51
e 51 49
e 50 2
e 49 52
e 4 52
e 53 54
e 54 49
e 53 7
e 49 55
e 9 55
e 56 57
e 57 49
e 56 11
e 49 58
e 14 58
e 49 59
e 16 59
e 60 61
e 61 49
e 60 19
e 62 63
e 63 49
e 62 21
e 64 65
e 65 49
e 64 23
e 66 67
e 67 49
e 66 25
e 49 68
e 27 68
e 49 69
e 30 69
e 70 71
e 71 49
e 70 33
e 72 73
e 73 49
e 72 36
e 49 74
e 39 74
e 75 76
e 76 49
e 75 41
e 77 78
e 78 49
e 77 43
e 49 79
e 45 79
e 80 81
e 81 49
e 80 47
e 83 84
e 84 82
e 83 2
e 85 86
e 86 82
e 85 4
e 82 87
e 7 87
e 82 88
e 9 88
e 89 90
e 90 82
e 89 11
e 82 91
e 14 91
e 92 93
e 93 82
e 92 16
e 82 94
e 19 94
e 82 95
e 21 95
e 96 97
e 97 82
e 96 23
e 98 99
e 99 82
e 98 25
e 82 100
e 27 100
e 82 101
e 30 101
e 102 103
e 103 82
e 102 33
e 104 105
e 105 82
e 104 36
e 106 107
e 107 82
e 106 39
e 82 108
e 41 108
e 109 110
e 110 82
e 109 43
e 82 111
e 45 111
e 112 113
e 113 82
e 112 47
e 115 116
e 116 114
e 115 2
e 114 117
e 4 117
e 118 119
e 119 114
e 118 7
e 120 121
e 121 114
e 120 9
e 122 123
e 123 114
e 122 11
e 114 124
e 14 124
e 114 125
e 16 125
e 114 126
e 19 126
e 114 127
e 21 127
e 114 128
e 23 128
e 114 129
e 25 129
e 114 130
e 27 130
e 131 132
e 132 114
e 131 30
e 114 133
e 33 133
e 114 134
e 36 134
e 114 135
e 39 135
e 136 137
e 137 114
e 136 41
e 114 138
e 43 138
e 139 140
e 140 114
e 139 45
e 141 142
e 142 114
e 141 47
e 143 144
e 2 144
e 143 145
e 4 145
e 146 147
e 147 143
e 146 7
e 148 149
e 149 143
e 148 9
e 143 150
e 11 150
e 151 152
e 152 143
e 151 14
e 143 153
e 16 153
e 143 154
e 19 154
e 143 155
e 21 155
e 156 157
e 157 143
e 156 23
e 158 159
e 159 143
e 158 25
e 160 161
e 161 143
e 160 27
e 143 162
e 30 162
e 163 164
e 164 143
e 163 33
e 165 166
e 166 143
e 165 36
e 167 168
e 168 143
e 167 39
e 143 169
e 41 169
e 170 171
e 171 143
e 170 43
e 172 173
e 173 143
e 172 45
e 174 175
e 175 143
e 174 47
e 176 177
e 2 177
e 178 179
e 179 176
e 178 4
e 176 180
e 7 180
e 181 182
e 182 176
e 181 9
e 176 183
e 11 183
e 176 184
e 14 184
e 185 186
e 186 176
e 185 16
e 176 187
e 19 187
e 176 188
e 21 188
e 176 189
e 23 189
e 190 191
e 191 176
e 190 25
e 192 193
e 193 176
e 192 27
e 176 194
e 30 194
e 176 195
e 33 195
e 176 196
e 36 196
e 176 197
e 39 197
e 198 199
e 199 176
e 198 41
e 176 200
e 43 200
e 201 202
e 202 176
e 201 45
e 176 203
e 47 203
e 205 206
e 206 204
e 205 2
e 204 207
e 4 207
e 204 208
e 7 208
e 204 209
e 9 209
e 204 210
e 11 210
e 204 211
e 14 211
e 204 212
e 16 212
e 204 213
e 19 213
e 204 214
e 21 214
e 215 216
e 216 204
e 215 23
e 204 217
e 25 217
e 218 219
e 219 204
e 218 27
e 220 221
e 221 204
e 220 30
e 222 223
e 223 204
e 222 33
e 224 225
e 225 204
e 224 36
e 204 226
e 39 226
e 204 227
e 41 227
e 204 228
e 43 228
e 229 230
e 230 204
e 229 45
e 231 232
e 232 204
e 231 47
e 233 234
e 2 234
e 235 236
e 236 233
e 235 4
e 233 237
e 7 237
e 238 239
e 239 233
e 238 9
e 233 240
e 11 240
e 241 242
e 242 233
e 241 14
e 233 243
e 16 243
e 244 245
e 245 233
e 244 19
e 246 247
e 247 233
e 246 21
e 233 248
e 23 248
e 233 249
e 25 249
e 250 251
e 251 233
e 250 27
e 252 253
e 253 233
e 252 30
e 233 254
e 33 254
e 233 255
e 36 255
e 233 256
e 39 256
e 233 257
e 41 257
e 233 258
e 43 258
e 259 260
e 260 233
e 259 45
e 261 262
e 262 233
e 261 47
e 264 265
e 265 263
e 264 2
e 266 267
e 267 263
e 266 4
e 263 268
e 7 268
e 269 270
e 270 263
e 269 9
e 263 271
e 11 271
e 263 272
e 14 272
e 263 273
e 16 273
e 274 275
e 275 263
e 274 19
e 263 276
e 21 276
e 263 277
e 23 277
e 263 278
e 25 278
e 263 279
e 27 279
e 280 281
e 281 263
e 280 30
e 263 282
e 33 282
e 283 284
e 284 263
e 283 36
e 285 286
e 286 263
e 285 39
e 287 288
e 288 263
e 287 41
e 289 290
e 290 263
e 289 43
e 263 291
e 45 291
e 292 293
e 293 263
e 292 47
e 295 296
e 296 294
e 295 2
e 294 297
e 4 297
e 294 298
e 7 298
e 294 299
e 9 299
e 294 300
e 11 300
e 301 302
e 302 294
e 301 14
e 303 304
e 304 294
e 303 16
e 305 306
e 306 294
e 305 19
e 307 308
e 308 294
e 307 21
e 294 309
e 23 309
e 310 311
e 311 294
e 310 25
e 294 312
e 27 312
e 313 314
e 314 294
e 313 30
e 294 315
e 33 315
e 294 316
e 36 316
e 317 318
e 318 294
e 317 39
e 319 320
e 320 294
e 319 41
e 321 322
e 322 294
e 321 43
e 323 324
e 324 294
e 323 45
e 325 326
e 326 294
e 325 47
e 328 329
e 329 327
e 328 2
e 327 330
e 4 330
e 331 332
e 332 327
e 331 7
e 327 333
e 9 333
e 334 335
e 335 327
e 334 11
e 327 336
e 14 336
e 327 337
e 16 337
e 338 339
e 339 327
e 338 19
e 340 341
e 341 327
e 340 21
e 327 342
e 23 342
e 327 343
e 25 343
e 344 345
e 345 327
e 344 27
e 346 347
e 347 327
e 346 30
e 327 348
e 33 348
e 327 349
e 36 349
e 327 350
e 39 350
e 327 351
e 41 351
e 327 352
e 43 352
e 327 353
e 45 353
e 354 355
e 355 327
e 354 47
e 357 358
e 358 356
e 357 2
e 356 359
e 4 359
e 360 361
e 361 356
e 360 7
e 362 363
e 363 356
e 362 9
e 356 364
e 11 364
e 365 366
e 366 356
e 365 14
e 356 367
e 16 367
e 368 369
e 369 356
e 368 19
e 356 370
e 21 370
e 356 371
e 23 371
e 356 372
e 25 372
e 373 374
e 374 356
e 373 27
e 356 375
e 30 375
e 376 377
e 377 356
e 376 33
e 356 378
e 36 378
e 379 380
e 380 356
e 379 39
e 381 382
e 382 356
e 381 41
e 356 383
e 43 383
e 356 384
e 45 384
e 385 386
e 386 356
e 385 47
e 388 389
e 389 387
e 388 2
e 390 391
e 391 387
e 390 4
e 387 392
e 7 392
e 393 394
e 394 387
e 393 9
e 395 396
e 396 387
e 395 11
e 387 397
e 14 397
e 398 399
e 399 387
e 398 16
e 400 401
e 401 387
e 400 19
e 387 402
e 21 402
e 403 404
e 404 387
e 403 23
e 387 405
e 25 405
e 387 406
e 27 406
e 407 408
e 408 387
e 407 30
e 409 410
e 410 387
e 409 33
e 411 412
e 412 387
e 411 36
e 413 414
e 414 387
e 413 39
e 387 415
e 41 415
e 416 417
e 417 387
e 416 43
e 418 419
e 419 387
e 418 45
e 387 420
e 47 420
e 422 423
e 423 421
e 422 2
e 421 424
e 4 424
e 421 425
e 7 425
e 421 426
e 9 426
e 421 427
e 11 427
e 421 428
e 14 428
e 429 430
e 430 421
e 429 16
e 431 432
e 432 421
e 431 19
e 433 434
e 434 421
e 433 21
e 435 436
e 436 421
e 435 23
e 437 438
e 438 421
e 437 25
e 421 439
e 27 439
e 421 440
e 30 440
e 441 442
e 442 421
e 441 33
e 421 443
e 36 443
e 421 444
e 39 444
e 421 445
e 41 445
e 446 447
e 447 421
e 446 43
e 448 449
e 449 421
e 448 45
e 450 451
e 451 421
e 450 47
e 453 454
e 454 452
e 453 2
e 455 456
e 456 452
e 455 4
e 457 458
e 458 452
e 457 7
e 459 460
e 460 452
e 459 9
e 452 461
e 11 461
e 452 462
e 14 462
e 452 463
e 16 463
e 452 464
e 19 464
e 465 466
e 466 452
e 465 21
e 467 468
e 468 452
e 467 23
e 469 470
e 470 452
e 469 25
e 452 471
e 27 471
e 472 473
e 473 452
e 472 30
e 474 475
e 475 452
e 474 33
e 452 476
e 36 476
e 477 478
e 478 452
e 477 39
e 452 479
e 41 479
e 452 480
e 43 480
e 481 482
e 482 452
e 481 45
e 483 484
e 484 452
e 483 47
e 486 487
e 487 485
e 486 2
e 488 489
e 489 485
e 488 4
e 485 490
e 7 490
e 491 492
e 492 485
e 491 9
e 485 493
e 11 493
e 485 494
e 14 494
e 495 496
e 496 485
e 495 16
e 485 497
e 19 497
e 485 498
e 21 498
e 499 500
e 500 485
e 499 23
e 485 501
e 25 501
e 485 502
e 27 502
e 503 504
e 504 485
e 503 30
e 485 505
e 33 505
e 506 507
e 507 485
e 506 36
e 508 509
e 509 485
e 508 39
e 485 510
e 41 510
e 485 511
e 43 511
e 512 513
e 513 485
e 512 45
e 514 515
e 515 485
e 514 47
e 516 517
e 2 517
e 516 518
e 4 518
e 519 520
e 520 516
e 519 7
e 521 522
e 522 516
e 521 9
e 523 524
e 524 516
e 523 11
e 516 525
e 14 525
e 526 527
e 527 516
e 526 16
e 516 528
e 19 528
e 516 529
e 21 529
e 516 530
e 23 530
e 531 532
e 532 516
e 531 25
e 516 533
e 27 533
e 534 535
e 535 516
e 534 30
e 516 536
e 33 536
e 516 537
e 36 537
e 538 539
e 539 516
e 538 39
e 540 541
e 541 516
e 540 41
e 542 543
e 543 516
e 542 43
e 516 544
e 45 544
e 545 546
e 546 516
e 545 47
e 547 548
e 2 548
e 547 549
e 4 549
e 547 550
e 7 550
e 547 551
e 9 551
e 547 552
e 11 552
e 547 553
e 14 553
e 547 554
e 16 554
e 547 555
e 19 555
e 547 556
e 21 556
e 557 558
e 558 547
e 557 23
e 559 560
e 560 547
e 559 25
e 547 561
e 27 561
e 562 563
e 563 547
e 562 30
e 547 564
e 33 564
e 547 565
e 36 565
e 547 566
e 39 566
e 547 567
e 41 567
e 547 568
e 43 568
e 547 569
e 45 569
e 547 570
e 47 570
e 571 572
e 2 572
e 571 573
e 4 573
e 571 574
e 7 574
e 575 576
e 576 571
e 575 9
e 577 578
e 578 571
e 577 11
e 579 580
e 580 571
e 579 14
e 571 581
e 16 581
e 571 582
e 19 582
e 571 583
e 21 583
e 571 584
e 23 584
e 585 586
e 586 571
e 585 25
e 587 588
e 588 571
e 587 27
e 589 590
e 590 571
e 589 30
e 571 591
e 33 591
e 592 593
e 593 571
e 592 36
e 571 594
e 39 594
e 595 596
e 596 571
e 595 41
e 597 598
e 598 571
e 597 43
e 599 600
e 600 571
e 599 45
e 601 602
e 602 571
e 601 47
e 604 605
e 605 603
e 604 2
e 603 606
e 4 606
e 603 607
e 7 607
e 608 609
e 609 603
e 608 9
e 603 610
e 11 610
e 603 611
e 14 611
e 603 612
e 16 612
e 603 613
e 19 613
e 603 614
e 21 614
e 615 616
e 616 603
e 615 23
e 603 617
e 25 617
e 603 618
e 27 618
e 619 620
e 620 603
e 619 30
e 621 622
e 622 603
e 621 33
e 623 624
e 624 603
e 623 36
e 625 626
e 626 603
e 625 39
e 603 627
e 41 627
e 603 628
e 43 628
e 603 629
e 45 629
e 630 631
e 631 603
e 630 47
